&EXT_RESTART
RESTART_FILE_NAME PROJECT-1.restart 
&END EXT_RESTART

&GLOBAL
# PROJECT ov-4h2o-v
 RUN_TYPE ENERGY 
 PRINT_LEVEL MEDIUM
&END GLOBAL

&MOTION
 &GEO_OPT
  MAX_ITER  200
  MAX_DR    1.E-3
  RMS_DR    3.E-4
  MAX_FORCE 1.E-4
  RMS_FORCE 3.E-5
  OPTIMIZER BFGS
 &END GEO_OPT
#&CONSTRANT
# &FIXED_ATOMS
#  COMPONENTS_TO_FIX  XYZ
#  LIST 1
# &END FIXED_ATOMS
#&END CONSTRANT
&END MOTION

&FORCE_EVAL
 &DFT
  BASIS_SET_FILE_NAME /opt/hhpc/home/wkp/kp/cp2k/wenbo/potential/BASIS_SET
  POTENTIAL_FILE_NAME /opt/hhpc/home/wkp/kp/cp2k/wenbo/potential/GTH_POTENTIALS
   LSD
&PRINT
&MO_CUBES
NLUMO 500
&END
&END
  PLUS_U_METHOD LOWDIN
  &MGRID
   CUTOFF 280
#   REL_CUTOFF 60
 COMMENSURATE
  &END MGRID
  &QS
   EXTRAPOLATION ASPC
   EXTRAPOLATION_ORDER 3
   EPS_DEFAULT 1.0E-12
   EPS_PGF_ORB 1.0E-16
  &END QS
  &AUXILIARY_DENSITY_MATRIX_METHOD
   METHOD BASIS_PROJECTION
   ADMM_PURIFICATION_METHOD MO_DIAG 
  &END
  &SCF
   EPS_SCF 1.0E-6
   MAX_SCF 80
   SCF_GUESS RESTART 
   &OUTER_SCF
    MAX_SCF 5
    OPTIMIZER DIIS
    STEP_SIZE 0.15
    EPS_SCF 1.0E-6
   &END OUTER_SCF
   &OT T 
    MINIMIZER DIIS
    PRECONDITIONER FULL_ALL
    ENERGY_GAP 0.01
   &END OT
  &END SCF
      &XC
        &XC_FUNCTIONAL PBE
        &END XC_FUNCTIONAL

      &VDW_POTENTIAL
        POTENTIAL_TYPE PAIR_POTENTIAL
        &PAIR_POTENTIAL
          TYPE DFTD3
          PARAMETER_FILE_NAME  /opt/hhpc/home/wkp/kp/cp2k/wenbo/potential/dftd3.dat
          REFERENCE_FUNCTIONAL PBE
        &END PAIR_POTENTIAL
      &END VDW_POTENTIAL

        &XC_GRID
         XC_DERIV SPLINE2_smooth
        &END XC_GRID
      &END XC
 &END DFT
 &SUBSYS
  &CELL
   ABC  11.8360  12.9664  37.2366
  &END CELL
  &TOPOLOGY
    COORD_FILE_FORMAT CIF
    COORD_FILE_NAME full.cif
  &END TOPOLOGY
  &KIND Ti
   BASIS_SET  DZVP-MOLOPT-SR-GTH
   BASIS_SET  AUX_FIT MOD-DZVP-GTH  
   POTENTIAL GTH-PBE-q12
  &END KIND
  &KIND O
   BASIS_SET  DZVP-MOLOPT-SR-GTH
   BASIS_SET AUX_FIT cFIT3 
   POTENTIAL GTH-PBE-q6
  &END KIND
  &KIND H
   BASIS_SET  DZVP-MOLOPT-SR-GTH
   BASIS_SET AUX_FIT cFIT3
   POTENTIAL GTH-PBE-q1
  &END KIND
  &KIND C 
   BASIS_SET  DZVP-MOLOPT-SR-GTH
   BASIS_SET AUX_FIT cFIT3
   POTENTIAL GTH-PBE-q4
  &END KIND
 &END SUBSYS
&END FORCE_EVAL
